100
100
3000 3000 3000 3000 3000 3000 3000 3000 3000 3000 3000 3000 3000 3000 3000 3000 3000 3000 3000 3000 3000 3000 3000 3000 3000 3000 3000 3000 3000 3000 3000 3000 3000 3000 3000 3000 3000 3000 3000 3000 3000 3000 3000 3000 3000 3000 3000 3000 3000 3000 3000 3000 3000 3000 3000 3000 3000 3000 3000 3000 3000 3000 3000 3000 3000 3000 3000 3000 3000 3000 3000 3000 3000 3000 3000 3000 3000 3000 3000 3000 3000 3000 3000 3000 3000 3000 3000 3000 3000 3000 3000 3000 3000 3000 3000 3000 3000 3000 3000 3000
0 7 0
0 35 1
0 40 0
0 49 1
0 53 3
0 61 3
0 75 2
0 80 0
0 84 4
0 94 0
1 10 0
1 13 0
1 14 0
1 25 1
1 29 3
1 36 1
1 72 2
1 73 0
1 83 2
1 87 2
2 0 1
2 5 3
2 9 3
2 13 3
2 26 1
2 39 2
2 56 1
2 58 2
2 74 3
2 84 1
3 3 0
3 8 0
3 17 0
3 22 2
3 30 2
3 41 1
3 45 1
3 48 2
3 56 1
3 76 4
4 8 4
4 11 1
4 14 3
4 27 1
4 40 1
4 56 0
4 61 3
4 65 1
4 83 3
4 87 0
5 20 0
5 25 2
5 46 2
5 64 1
5 68 3
5 69 2
5 73 1
5 77 3
5 79 3
5 88 1
6 19 1
6 32 2
6 34 4
6 46 4
6 53 0
6 61 4
6 64 2
6 73 0
6 83 1
6 85 2
7 0 3
7 6 1
7 12 0
7 18 0
7 30 2
7 31 0
7 70 3
7 71 2
7 82 4
7 84 0
8 5 2
8 29 4
8 31 2
8 36 4
8 49 1
8 58 4
8 62 1
8 63 4
8 65 1
8 67 2
9 16 2
9 30 0
9 33 1
9 67 3
9 74 3
9 75 4
9 76 4
9 85 4
9 89 0
9 96 3
10 2 4
10 23 0
10 30 4
10 33 3
10 35 0
10 44 4
10 57 4
10 65 0
10 68 0
10 76 2
11 7 2
11 8 2
11 10 0
11 13 2
11 17 0
11 27 2
11 49 1
11 52 0
11 68 1
11 81 0
12 5 2
12 14 2
12 28 0
12 29 2
12 44 0
12 46 1
12 55 3
12 63 3
12 68 3
12 76 0
13 9 1
13 11 4
13 21 4
13 47 0
13 67 2
13 71 1
13 83 4
13 89 1
13 94 1
13 97 4
14 3 4
14 4 0
14 22 4
14 44 2
14 57 1
14 80 3
14 87 4
14 91 2
14 92 1
14 94 3
15 2 1
15 12 2
15 25 4
15 29 3
15 42 2
15 48 0
15 50 1
15 64 2
15 72 1
15 89 2
16 25 1
16 59 1
16 65 4
16 81 3
16 88 0
16 95 1
16 96 0
16 97 3
16 98 3
16 99 0
17 2 0
17 14 2
17 17 1
17 47 0
17 50 3
17 53 1
17 62 2
17 72 2
17 79 1
17 86 3
18 0 3
18 12 2
18 17 1
18 33 0
18 41 2
18 43 4
18 55 4
18 58 2
18 77 4
18 80 3
19 0 1
19 12 0
19 32 0
19 50 3
19 67 3
19 73 4
19 75 3
19 96 3
19 98 1
19 99 2
20 4 0
20 5 0
20 42 4
20 51 3
20 63 3
20 65 2
20 75 2
20 80 1
20 81 2
20 87 0
21 5 4
21 15 2
21 19 0
21 36 4
21 41 0
21 73 1
21 83 4
21 84 0
21 85 4
21 93 0
22 4 3
22 17 4
22 20 0
22 38 2
22 40 2
22 43 0
22 50 2
22 64 4
22 65 4
22 78 3
23 0 2
23 1 1
23 3 0
23 28 3
23 35 2
23 61 1
23 65 2
23 74 4
23 82 1
23 88 2
24 21 0
24 23 3
24 25 0
24 34 2
24 38 4
24 82 0
24 85 1
24 91 1
24 95 2
24 98 4
25 6 3
25 9 2
25 19 3
25 31 0
25 94 4
25 95 1
25 96 4
25 97 1
25 98 0
25 99 0
26 21 4
26 24 1
26 26 2
26 45 4
26 50 4
26 60 0
26 71 0
26 72 4
26 81 3
26 90 0
27 11 3
27 28 4
27 57 2
27 59 2
27 63 3
27 67 4
27 68 1
27 82 3
27 87 2
27 88 0
28 7 4
28 20 1
28 29 3
28 30 1
28 43 4
28 53 0
28 66 3
28 69 0
28 72 3
28 80 2
29 14 2
29 15 1
29 19 1
29 22 4
29 24 3
29 52 4
29 74 2
29 76 2
29 81 4
29 92 0
30 16 2
30 23 1
30 29 4
30 30 4
30 35 2
30 36 4
30 42 4
30 44 1
30 48 2
30 60 4
31 5 0
31 7 2
31 8 1
31 10 3
31 14 1
31 27 2
31 31 1
31 45 2
31 51 4
31 54 2
32 1 4
32 3 2
32 5 2
32 7 4
32 9 1
32 20 1
32 29 1
32 31 0
32 53 1
32 56 0
33 3 3
33 15 0
33 17 3
33 22 4
33 39 0
33 41 2
33 75 1
33 89 4
33 90 3
33 93 0
34 16 1
34 31 2
34 33 4
34 42 4
34 56 0
34 61 1
34 62 3
34 68 3
34 74 3
34 77 2
35 8 3
35 12 2
35 20 4
35 74 3
35 88 1
35 93 1
35 96 2
35 97 1
35 98 3
35 99 4
36 12 0
36 20 4
36 25 3
36 33 3
36 49 3
36 51 4
36 58 1
36 62 1
36 78 3
36 89 4
37 10 1
37 11 0
37 31 3
37 38 2
37 39 0
37 46 1
37 52 3
37 54 1
37 57 3
37 59 1
38 8 3
38 17 1
38 29 1
38 40 0
38 46 0
38 50 0
38 59 1
38 66 2
38 79 3
38 80 4
39 27 0
39 32 4
39 38 4
39 51 4
39 60 4
39 61 4
39 70 0
39 71 4
39 75 3
39 85 1
40 19 3
40 25 0
40 26 0
40 33 0
40 36 2
40 46 1
40 51 1
40 61 2
40 77 2
40 79 3
41 21 4
41 23 0
41 24 2
41 33 0
41 36 4
41 46 4
41 54 2
41 66 2
41 70 4
41 82 3
42 1 2
42 13 1
42 15 1
42 25 4
42 38 3
42 41 3
42 50 3
42 58 0
42 95 0
42 98 0
43 31 1
43 37 1
43 39 3
43 42 4
43 51 4
43 53 1
43 68 3
43 82 2
43 84 1
43 86 3
44 6 4
44 13 4
44 18 3
44 28 2
44 37 2
44 50 0
44 65 2
44 67 4
44 89 0
44 97 3
45 1 1
45 6 3
45 10 3
45 30 3
45 32 0
45 36 1
45 40 4
45 52 0
45 56 3
45 59 0
46 7 3
46 8 1
46 17 4
46 33 2
46 34 0
46 38 1
46 49 0
46 61 4
46 63 1
46 75 2
47 37 0
47 43 0
47 57 3
47 67 4
47 70 3
47 77 0
47 78 4
47 85 3
47 87 2
47 92 2
48 4 2
48 15 3
48 34 1
48 41 0
48 45 2
48 57 4
48 66 0
48 68 2
48 72 3
48 79 1
49 23 0
49 24 4
49 42 2
49 43 0
49 74 0
49 77 3
49 89 3
49 90 2
49 92 2
49 95 0
50 2 0
50 6 0
50 42 2
50 43 2
50 46 0
50 77 0
50 78 2
50 79 4
50 86 1
50 90 0
51 1 3
51 10 0
51 12 4
51 14 0
51 20 3
51 51 4
51 54 0
51 79 4
51 82 2
51 83 2
52 0 3
52 4 2
52 8 3
52 18 2
52 19 0
52 24 0
52 39 3
52 59 3
52 78 1
52 91 0
53 7 2
53 8 1
53 19 1
53 43 2
53 54 0
53 55 4
53 58 2
53 63 4
53 73 2
53 75 1
54 23 0
54 26 0
54 45 0
54 52 3
54 67 2
54 72 0
54 84 2
54 85 0
54 93 3
54 94 0
55 24 0
55 33 4
55 38 3
55 39 2
55 47 3
55 48 4
55 55 2
55 72 0
55 80 3
55 83 2
56 11 4
56 13 4
56 32 2
56 52 1
56 55 1
56 85 2
56 95 1
56 97 4
56 98 3
56 99 4
57 24 3
57 28 2
57 37 2
57 48 1
57 49 1
57 56 2
57 71 1
57 88 3
57 92 3
57 95 0
58 9 3
58 22 4
58 35 4
58 37 0
58 47 1
58 61 3
58 66 4
58 69 2
58 78 0
58 90 3
59 10 3
59 20 3
59 35 1
59 45 1
59 66 4
59 69 4
59 70 4
59 86 3
59 88 2
59 91 4
60 1 0
60 3 2
60 6 2
60 13 4
60 21 1
60 23 0
60 27 3
60 28 3
60 33 3
60 38 4
61 0 0
61 10 2
61 18 0
61 43 2
61 63 1
61 76 2
61 84 2
61 86 1
61 89 1
61 90 1
62 32 4
62 39 4
62 41 0
62 60 4
62 70 2
62 74 1
62 82 4
62 96 0
62 97 0
62 99 0
63 4 3
63 12 2
63 17 4
63 54 1
63 55 4
63 69 2
63 76 4
63 82 1
63 89 0
63 93 2
64 3 3
64 4 3
64 6 3
64 20 4
64 21 1
64 24 1
64 28 1
64 37 1
64 47 3
64 53 4
65 10 0
65 15 1
65 18 0
65 32 1
65 39 2
65 47 0
65 55 3
65 71 4
65 73 2
65 74 1
66 29 0
66 55 2
66 57 3
66 70 1
66 74 1
66 77 3
66 79 4
66 80 3
66 81 0
66 82 2
67 3 3
67 6 0
67 11 3
67 18 4
67 23 3
67 25 3
67 30 4
67 39 4
67 41 0
67 45 2
68 18 4
68 40 4
68 44 2
68 57 1
68 58 1
68 60 4
68 64 3
68 73 3
68 80 1
68 94 4
69 12 2
69 36 4
69 38 3
69 55 2
69 77 2
69 86 3
69 88 0
69 91 1
69 92 0
69 93 2
70 32 0
70 37 4
70 51 0
70 53 3
70 54 2
70 58 1
70 62 3
70 63 4
70 81 1
70 90 0
71 3 4
71 25 1
71 28 2
71 70 1
71 76 0
71 91 1
71 93 1
71 94 3
71 95 4
71 96 4
72 1 2
72 2 1
72 9 3
72 11 4
72 18 0
72 21 3
72 63 4
72 67 3
72 78 1
72 83 0
73 11 4
73 19 4
73 35 3
73 37 0
73 69 0
73 87 4
73 92 4
73 94 1
73 96 1
73 97 4
74 15 1
74 26 1
74 36 2
74 45 4
74 54 1
74 56 3
74 62 3
74 66 2
74 78 4
74 83 1
75 2 4
75 5 1
75 13 0
75 53 3
75 65 4
75 67 3
75 77 0
75 86 1
75 92 3
75 99 4
76 6 4
76 15 3
76 17 0
76 35 4
76 36 2
76 40 4
76 41 0
76 43 2
76 47 0
76 48 0
77 7 4
77 34 2
77 44 2
77 52 3
77 56 4
77 57 4
77 68 2
77 97 4
77 98 3
77 99 4
78 7 0
78 22 1
78 27 4
78 40 2
78 41 4
78 53 0
78 62 2
78 63 1
78 72 2
78 91 0
79 14 0
79 16 2
79 31 3
79 40 4
79 45 1
79 47 0
79 58 4
79 60 0
79 62 1
79 66 3
80 2 0
80 37 2
80 47 1
80 48 4
80 60 2
80 66 1
80 84 3
80 87 0
80 90 3
80 91 2
81 1 2
81 9 1
81 14 2
81 16 0
81 31 0
81 39 2
81 45 1
81 49 1
81 54 4
81 58 3
82 2 4
82 3 3
82 8 2
82 15 3
82 24 4
82 60 1
82 87 0
82 91 0
82 93 1
82 95 1
83 5 4
83 10 0
83 11 3
83 48 0
83 51 3
83 69 1
83 70 4
83 76 4
83 93 2
83 99 1
84 15 0
84 18 2
84 21 0
84 34 4
84 42 2
84 44 3
84 64 1
84 68 2
84 79 4
84 84 3
85 1 1
85 27 2
85 32 4
85 44 0
85 50 4
85 78 0
85 83 2
85 89 1
85 97 2
85 98 2
86 26 1
86 30 2
86 32 1
86 44 0
86 59 1
86 62 0
86 64 2
86 90 2
86 95 0
86 99 1
87 6 0
87 16 0
87 21 4
87 38 0
87 40 4
87 46 3
87 85 3
87 90 1
87 94 0
87 96 1
88 4 3
88 13 3
88 16 1
88 20 1
88 26 3
88 57 3
88 59 4
88 61 0
88 64 2
88 71 2
89 0 3
89 9 1
89 22 3
89 26 3
89 27 2
89 34 4
89 52 0
89 88 2
89 92 0
89 93 3
90 11 3
90 13 3
90 23 3
90 27 3
90 42 3
90 59 0
90 60 0
90 62 1
90 69 0
90 70 1
91 2 3
91 4 4
91 9 0
91 22 2
91 34 2
91 49 0
91 64 2
91 94 4
91 96 4
91 98 0
92 4 3
92 16 3
92 28 2
92 30 0
92 46 1
92 48 3
92 49 4
92 52 0
92 59 1
92 60 0
93 9 3
93 19 4
93 49 1
93 50 1
93 56 4
93 65 2
93 69 3
93 84 0
93 85 2
93 86 1
94 23 3
94 29 3
94 34 3
94 35 3
94 43 1
94 55 0
94 71 4
94 73 1
94 75 3
94 87 2
95 14 4
95 18 4
95 19 2
95 27 3
95 54 1
95 71 1
95 75 1
95 76 3
95 80 0
95 81 0
96 0 1
96 1 3
96 2 2
96 5 2
96 7 3
96 16 4
96 21 4
96 22 2
96 28 2
96 34 0
97 16 3
97 22 0
97 26 4
97 35 4
97 42 3
97 44 4
97 47 3
97 64 3
97 69 3
97 72 0
98 37 0
98 51 2
98 52 2
98 66 1
98 73 2
98 78 1
98 81 3
98 86 0
98 88 1
98 92 1
99 0 4
99 12 0
99 24 3
99 26 3
99 48 0
99 71 0
99 79 2
99 81 3
99 86 4
99 91 3
